11 965
529 7 485 7 272 7 90 9 798 11 593 18
525 7 482 7 362 7 201 9 13 11 819 18
525 7 484 7 368 7 123 9 857 11 631 18
525 7 482 7 362 7 118 9 855 11 676 18
535 8 491 8 398 9 231 10 100 15
525 7 482 7 365 7 115 9 943 13
525 7 479 7 355 7 106 9 927 13
525 7 479 7 355 7 106 9 925 13
525 7 479 7 356 7 109 9 864 11 699 15 557 22
525 7 479 7 355 7 162 12
525 7 479 7 355 7 106 9 931 13
